 ELEMENT /-   ELECTRON_GAS	 0.000000e+00	 0.000000e+00	 0.000000e+00!
 ELEMENT VA         VACUUM	 0.000000e+00	 0.000000e+00	 0.000000e+00!
 ELEMENT AL         FCC_A1	 2.698154e+01	 4.540000e+03	 2.830000e+01!
 ELEMENT NI         FCC_A1	 5.869340e+01	 4.787000e+03	 2.979550e+01!

 FUNCTION  GHSERAL	2.981500e+02	0;	6.000000e+03!
 FUNCTION  GHSERNI	2.981500e+02	0;	6.000000e+03!
 FUNCTION  UN_ASS	2.981500e+02	0;	6.000000e+03!

 TYPE_DEFINITION % SEQ *! 
 DEFINE_SYSTEM_DEFAULT ELEMENT 2 !
 DEFAULT_COMMAND DEF_SYS_ELEMENT VA /- !

 PHASE A15  %  2 6.000000 2.000000  ! 
   CONSTITUENT  A15 :AL,NI:AL,NI: !
PARAMETER G(A15,AL:AL;0) 2.9815E+02  61920.406128; 6.0E+03 N !
PARAMETER G(A15,AL:NI;0) 2.9815E+02  -197055.594632; 6.0E+03 N !
PARAMETER G(A15,NI:AL;0) 2.9815E+02  -235448.639264; 6.0E+03 N !
PARAMETER G(A15,NI:NI;0) 2.9815E+02  89936.649720; 6.0E+03 N !

 PHASE Al12W  %  2 2.000000 24.000000  ! 
   CONSTITUENT  Al12W :AL,NI:AL,NI: !
PARAMETER G(Al12W,AL:AL;0) 2.9815E+02  152920.323842; 6.0E+03 N !

 PHASE Al4W  %  2 6.000000 24.000000  ! 
   CONSTITUENT  Al4W :AL,NI:AL,NI: !
PARAMETER G(Al4W,AL:AL;0) 2.9815E+02  227897.313750; 6.0E+03 N !

 PHASE Al5W  %  4 2.000000 2.000000 2.000000 6.000000  ! 
   CONSTITUENT  Al5W :AL,NI:AL,NI:AL,NI:AL,NI: !
PARAMETER G(Al5W,AL:AL:AL:AL;0) 2.9815E+02  15158.226576; 6.0E+03 N !

 PHASE C14  %  3 4.000000 2.000000 6.000000  ! 
   CONSTITUENT  C14 :AL,NI:AL,NI:AL,NI: !
PARAMETER G(C14,AL:AL:AL;0) 2.9815E+02  170979.284484; 6.0E+03 N !
PARAMETER G(C14,AL:AL:NI;0) 2.9815E+02  -593561.163096; 6.0E+03 N !
PARAMETER G(C14,AL:NI:AL;0) 2.9815E+02  -134558.214396; 6.0E+03 N !
PARAMETER G(C14,AL:NI:NI;0) 2.9815E+02  -370926.165612; 6.0E+03 N !
PARAMETER G(C14,NI:AL:AL;0) 2.9815E+02  143940.637944; 6.0E+03 N !
PARAMETER G(C14,NI:AL:NI;0) 2.9815E+02  -150749.203644; 6.0E+03 N !
PARAMETER G(C14,NI:NI:AL;0) 2.9815E+02  -305553.700428; 6.0E+03 N !
PARAMETER G(C14,NI:NI:NI;0) 2.9815E+02  204117.353736; 6.0E+03 N !

 PHASE C15  %  2 4.000000 2.000000  ! 
   CONSTITUENT  C15 :AL,NI:AL,NI: !
PARAMETER G(C15,AL:AL;0) 2.9815E+02  93736.819746; 6.0E+03 N !
PARAMETER G(C15,AL:NI;0) 2.9815E+02  91544.484756; 6.0E+03 N !
PARAMETER G(C15,NI:AL;0) 2.9815E+02  -178240.579188; 6.0E+03 N !
PARAMETER G(C15,NI:NI;0) 2.9815E+02  108887.520462; 6.0E+03 N !

 PHASE C36  %  5 4.000000 4.000000 4.000000 6.000000 6.000000  ! 
   CONSTITUENT  C36 :AL,NI:AL,NI:AL,NI:AL,NI:AL,NI: !
PARAMETER G(C36,AL:AL:AL:AL:AL;0) 2.9815E+02  359022.573192; 6.0E+03 N !
PARAMETER G(C36,AL:AL:AL:AL:NI;0) 2.9815E+02  -311492.177664; 6.0E+03 N !
PARAMETER G(C36,AL:AL:AL:NI:AL;0) 2.9815E+02  -314273.269944; 6.0E+03 N !
PARAMETER G(C36,AL:AL:AL:NI:NI;0) 2.9815E+02  -1153814.056872; 6.0E+03 N !
PARAMETER G(C36,AL:AL:NI:AL:AL;0) 2.9815E+02  -248006.988936; 6.0E+03 N !
PARAMETER G(C36,AL:AL:NI:AL:NI;0) 2.9815E+02  -556785.228072; 6.0E+03 N !
PARAMETER G(C36,AL:AL:NI:NI:AL;0) 2.9815E+02  -556613.870184; 6.0E+03 N !
PARAMETER G(C36,AL:AL:NI:NI:NI;0) 2.9815E+02  -762748.731552; 6.0E+03 N !
PARAMETER G(C36,AL:NI:AL:AL:AL;0) 2.9815E+02  439619.815824; 6.0E+03 N !
PARAMETER G(C36,AL:NI:AL:AL:NI;0) 2.9815E+02  -202868.656968; 6.0E+03 N !
PARAMETER G(C36,AL:NI:AL:NI:AL;0) 2.9815E+02  -278226.763800; 6.0E+03 N !
PARAMETER G(C36,AL:NI:AL:NI:NI;0) 2.9815E+02  -783584.925048; 6.0E+03 N !
PARAMETER G(C36,AL:NI:NI:AL:AL;0) 2.9815E+02  -402299.687712; 6.0E+03 N !
PARAMETER G(C36,AL:NI:NI:AL:NI;0) 2.9815E+02  -301891.488384; 6.0E+03 N !
PARAMETER G(C36,AL:NI:NI:NI:AL;0) 2.9815E+02  -386468.186712; 6.0E+03 N !
PARAMETER G(C36,AL:NI:NI:NI:NI;0) 2.9815E+02  -320692.806912; 6.0E+03 N !
PARAMETER G(C36,NI:AL:AL:AL:AL;0) 2.9815E+02  405746.528568; 6.0E+03 N !
PARAMETER G(C36,NI:AL:AL:AL:NI;0) 2.9815E+02  -328851.442896; 6.0E+03 N !
PARAMETER G(C36,NI:AL:AL:NI:AL;0) 2.9815E+02  -175520.863536; 6.0E+03 N !
PARAMETER G(C36,NI:AL:AL:NI:NI;0) 2.9815E+02  -765152.373336; 6.0E+03 N !
PARAMETER G(C36,NI:AL:NI:AL:AL;0) 2.9815E+02  -411948.989592; 6.0E+03 N !
PARAMETER G(C36,NI:AL:NI:AL:NI;0) 2.9815E+02  -423050.781192; 6.0E+03 N !
PARAMETER G(C36,NI:AL:NI:NI:AL;0) 2.9815E+02  -278841.536160; 6.0E+03 N !
PARAMETER G(C36,NI:AL:NI:NI:NI;0) 2.9815E+02  -327607.329456; 6.0E+03 N !
PARAMETER G(C36,NI:NI:AL:AL:AL;0) 2.9815E+02  324452.292120; 6.0E+03 N !
PARAMETER G(C36,NI:NI:AL:AL:NI;0) 2.9815E+02  -79834.815792; 6.0E+03 N !
PARAMETER G(C36,NI:NI:AL:NI:AL;0) 2.9815E+02  -11942.355528; 6.0E+03 N !
PARAMETER G(C36,NI:NI:AL:NI:NI;0) 2.9815E+02  -271897.489128; 6.0E+03 N !
PARAMETER G(C36,NI:NI:NI:AL:AL;0) 2.9815E+02  -608615.764464; 6.0E+03 N !
PARAMETER G(C36,NI:NI:NI:AL:NI;0) 2.9815E+02  -6385.976064; 6.0E+03 N !
PARAMETER G(C36,NI:NI:NI:NI:AL;0) 2.9815E+02  33514.940832; 6.0E+03 N !
PARAMETER G(C36,NI:NI:NI:NI:NI;0) 2.9815E+02  420989.292264; 6.0E+03 N !

 PHASE bcc:B   %  4 0.250000 0.250000 0.250000 0.250000  ! 
   CONSTITUENT  bcc:B  :AL,NI:AL,NI:AL,NI:AL,NI: !
PARAMETER G(bcc,AL:AL:AL:AL;0) 2.9815E+02  9255.062947; 6.0E+03 N !
PARAMETER G(bcc,AL:AL:AL:NI;0) 2.9815E+02  -9580.917926; 6.0E+03 N !
PARAMETER G(bcc,AL:AL:NI:NI;0) 2.9815E+02  -66315.359786; 6.0E+03 N !
PARAMETER G(bcc,AL:NI:AL:NI;0) 2.9815E+02  -35621.263179; 6.0E+03 N !
PARAMETER G(bcc,AL:NI:NI:NI;0) 2.9815E+02  -40847.896001; 6.0E+03 N !
PARAMETER G(bcc,NI:NI:NI:NI;0) 2.9815E+02  5337.566796; 6.0E+03 N !

 PHASE chi  %  4 1.000000 4.000000 12.000000 12.000000  ! 
   CONSTITUENT  chi :AL,NI:AL,NI:AL,NI:AL,NI: !
PARAMETER G(chi,AL:AL:AL:AL;0) 2.9815E+02  148986.232236; 6.0E+03 N !
PARAMETER G(chi,AL:AL:AL:NI;0) 2.9815E+02  -1166461.633463; 6.0E+03 N !
PARAMETER G(chi,AL:AL:NI:AL;0) 2.9815E+02  -1049801.546686; 6.0E+03 N !
PARAMETER G(chi,AL:AL:NI:NI;0) 2.9815E+02  -593819.731717; 6.0E+03 N !
PARAMETER G(chi,AL:NI:AL:AL;0) 2.9815E+02  -21893.284447; 6.0E+03 N !
PARAMETER G(chi,AL:NI:AL:NI;0) 2.9815E+02  -1247416.657587; 6.0E+03 N !
PARAMETER G(chi,AL:NI:NI:AL;0) 2.9815E+02  -1089938.271657; 6.0E+03 N !
PARAMETER G(chi,AL:NI:NI:NI;0) 2.9815E+02  37295.827783; 6.0E+03 N !
PARAMETER G(chi,NI:AL:AL:AL;0) 2.9815E+02  159820.070158; 6.0E+03 N !
PARAMETER G(chi,NI:AL:AL:NI;0) 2.9815E+02  -1264640.746893; 6.0E+03 N !
PARAMETER G(chi,NI:AL:NI:AL;0) 2.9815E+02  -1107128.784096; 6.0E+03 N !
PARAMETER G(chi,NI:AL:NI:NI;0) 2.9815E+02  -503316.341332; 6.0E+03 N !
PARAMETER G(chi,NI:NI:AL:AL;0) 2.9815E+02  81139.879955; 6.0E+03 N !
PARAMETER G(chi,NI:NI:AL:NI;0) 2.9815E+02  -1085691.099219; 6.0E+03 N !
PARAMETER G(chi,NI:NI:NI:AL;0) 2.9815E+02  -1005428.355149; 6.0E+03 N !
PARAMETER G(chi,NI:NI:NI:NI;0) 2.9815E+02  239162.551428; 6.0E+03 N !

 PHASE fcc:F   %  4 0.250000 0.250000 0.250000 0.250000  ! 
   CONSTITUENT  fcc:F  :AL,NI:AL,NI:AL,NI:AL,NI: !
PARAMETER G(fcc,AL:AL:AL:AL;0) 2.9815E+02  0.000000; 6.0E+03 N !
PARAMETER G(fcc,AL:AL:AL:NI;0) 2.9815E+02  -22287.260054; 6.0E+03 N !
PARAMETER G(fcc,AL:AL:NI:NI;0) 2.9815E+02  -52395.522040; 6.0E+03 N !
PARAMETER G(fcc,AL:NI:NI:NI;0) 2.9815E+02  -45426.605913; 6.0E+03 N !
PARAMETER G(fcc,NI:NI:NI:NI;0) 2.9815E+02  0.000000; 6.0E+03 N !

 PHASE hcp:B   %  4 0.250000 0.250000 0.250000 0.250000  ! 
   CONSTITUENT  hcp:B  :AL,NI:AL,NI:AL,NI:AL,NI: !
PARAMETER G(hcp,AL:AL:AL:AL;0) 2.9815E+02  3187.488371; 6.0E+03 N !
PARAMETER G(hcp,AL:AL:AL:NI;0) 2.9815E+02  -21200.739090; 6.0E+03 N !
PARAMETER G(hcp,AL:AL:NI:NI;0) 2.9815E+02  -48182.105474; 6.0E+03 N !
PARAMETER G(hcp,AL:NI:NI:NI;0) 2.9815E+02  -44634.558085; 6.0E+03 N !
PARAMETER G(hcp,NI:NI:NI:NI;0) 2.9815E+02  2651.416044; 6.0E+03 N !

 PHASE mu  %  5 1.000000 6.000000 2.000000 2.000000 2.000000  ! 
   CONSTITUENT  mu :AL,NI:AL,NI:AL,NI:AL,NI:AL,NI: !
PARAMETER G(mu,AL:AL:AL:AL:AL;0) 2.9815E+02  129596.449853; 6.0E+03 N !
PARAMETER G(mu,AL:AL:AL:AL:NI;0) 2.9815E+02  21061.104740; 6.0E+03 N !
PARAMETER G(mu,AL:AL:AL:NI:AL;0) 2.9815E+02  129468.514344; 6.0E+03 N !
PARAMETER G(mu,AL:AL:AL:NI:NI;0) 2.9815E+02  44566.857517; 6.0E+03 N !
PARAMETER G(mu,AL:AL:NI:AL:AL;0) 2.9815E+02  32088.988581; 6.0E+03 N !
PARAMETER G(mu,AL:AL:NI:AL:NI;0) 2.9815E+02  -163595.738904; 6.0E+03 N !
PARAMETER G(mu,AL:AL:NI:NI:AL;0) 2.9815E+02  1735.971510; 6.0E+03 N !
PARAMETER G(mu,AL:AL:NI:NI:NI;0) 2.9815E+02  -182146.963544; 6.0E+03 N !
PARAMETER G(mu,AL:NI:AL:AL:AL;0) 2.9815E+02  -625870.025703; 6.0E+03 N !
PARAMETER G(mu,AL:NI:AL:AL:NI;0) 2.9815E+02  -500780.329699; 6.0E+03 N !
PARAMETER G(mu,AL:NI:AL:NI:AL;0) 2.9815E+02  -541946.747797; 6.0E+03 N !
PARAMETER G(mu,AL:NI:AL:NI:NI;0) 2.9815E+02  -302960.760466; 6.0E+03 N !
PARAMETER G(mu,AL:NI:NI:AL:AL;0) 2.9815E+02  -398175.353056; 6.0E+03 N !
PARAMETER G(mu,AL:NI:NI:AL:NI;0) 2.9815E+02  -212265.446835; 6.0E+03 N !
PARAMETER G(mu,AL:NI:NI:NI:AL;0) 2.9815E+02  -285909.685282; 6.0E+03 N !
PARAMETER G(mu,AL:NI:NI:NI:NI;0) 2.9815E+02  6053.292752; 6.0E+03 N !
PARAMETER G(mu,NI:AL:AL:AL:AL;0) 2.9815E+02  -5240.500590; 6.0E+03 N !
PARAMETER G(mu,NI:AL:AL:AL:NI;0) 2.9815E+02  -115010.085658; 6.0E+03 N !
PARAMETER G(mu,NI:AL:AL:NI:AL;0) 2.9815E+02  -103081.608019; 6.0E+03 N !
PARAMETER G(mu,NI:AL:AL:NI:NI;0) 2.9815E+02  -154908.393471; 6.0E+03 N !
PARAMETER G(mu,NI:AL:NI:AL:AL;0) 2.9815E+02  -84869.042791; 6.0E+03 N !
PARAMETER G(mu,NI:AL:NI:AL:NI;0) 2.9815E+02  -339693.180619; 6.0E+03 N !
PARAMETER G(mu,NI:AL:NI:NI:AL;0) 2.9815E+02  -199046.269344; 6.0E+03 N !
PARAMETER G(mu,NI:AL:NI:NI:NI;0) 2.9815E+02  -309052.944785; 6.0E+03 N !
PARAMETER G(mu,NI:NI:AL:AL:AL;0) 2.9815E+02  -533759.875610; 6.0E+03 N !
PARAMETER G(mu,NI:NI:AL:AL:NI;0) 2.9815E+02  -417437.772843; 6.0E+03 N !
PARAMETER G(mu,NI:NI:AL:NI:AL;0) 2.9815E+02  -357076.665647; 6.0E+03 N !
PARAMETER G(mu,NI:NI:AL:NI:NI;0) 2.9815E+02  -129872.401815; 6.0E+03 N !
PARAMETER G(mu,NI:NI:NI:AL:AL;0) 2.9815E+02  -331892.651545; 6.0E+03 N !
PARAMETER G(mu,NI:NI:NI:AL:NI;0) 2.9815E+02  -149469.724066; 6.0E+03 N !
PARAMETER G(mu,NI:NI:NI:NI:AL;0) 2.9815E+02  -124700.886219; 6.0E+03 N !
PARAMETER G(mu,NI:NI:NI:NI:NI;0) 2.9815E+02  183573.124748; 6.0E+03 N !

 PHASE sigma  %  5 2.000000 4.000000 8.000000 8.000000 8.000000  ! 
   CONSTITUENT  sigma :AL,NI:AL,NI:AL,NI:AL,NI:AL,NI: !
PARAMETER G(sigma,AL:AL:AL:AL:AL;0) 2.9815E+02  190001.747310; 6.0E+03 N !
PARAMETER G(sigma,AL:AL:AL:AL:NI;0) 2.9815E+02  -224902.623000; 6.0E+03 N !
PARAMETER G(sigma,AL:AL:AL:NI:AL;0) 2.9815E+02  -863977.831800; 6.0E+03 N !
PARAMETER G(sigma,AL:AL:AL:NI:NI;0) 2.9815E+02  -1052750.509410; 6.0E+03 N !
PARAMETER G(sigma,AL:AL:NI:AL:AL;0) 2.9815E+02  -565884.567750; 6.0E+03 N !
PARAMETER G(sigma,AL:AL:NI:AL:NI;0) 2.9815E+02  -1299294.572220; 6.0E+03 N !
PARAMETER G(sigma,AL:AL:NI:NI:AL;0) 2.9815E+02  -1007774.851680; 6.0E+03 N !
PARAMETER G(sigma,AL:AL:NI:NI:NI;0) 2.9815E+02  -595952.647740; 6.0E+03 N !
PARAMETER G(sigma,AL:NI:AL:AL:AL;0) 2.9815E+02  81113.667930; 6.0E+03 N !
PARAMETER G(sigma,AL:NI:AL:AL:NI;0) 2.9815E+02  -727821.229920; 6.0E+03 N !
PARAMETER G(sigma,AL:NI:AL:NI:AL;0) 2.9815E+02  -1361480.718870; 6.0E+03 N !
PARAMETER G(sigma,AL:NI:AL:NI:NI;0) 2.9815E+02  -1268227.889370; 6.0E+03 N !
PARAMETER G(sigma,AL:NI:NI:AL:AL;0) 2.9815E+02  -525534.974220; 6.0E+03 N !
PARAMETER G(sigma,AL:NI:NI:AL:NI;0) 2.9815E+02  -1054597.856910; 6.0E+03 N !
PARAMETER G(sigma,AL:NI:NI:NI:AL;0) 2.9815E+02  -857964.674940; 6.0E+03 N !
PARAMETER G(sigma,AL:NI:NI:NI:NI;0) 2.9815E+02  -109082.593770; 6.0E+03 N !
PARAMETER G(sigma,NI:AL:AL:AL:AL;0) 2.9815E+02  -46511.530740; 6.0E+03 N !
PARAMETER G(sigma,NI:AL:AL:AL:NI;0) 2.9815E+02  -657742.199820; 6.0E+03 N !
PARAMETER G(sigma,NI:AL:AL:NI:AL;0) 2.9815E+02  -980019.504330; 6.0E+03 N !
PARAMETER G(sigma,NI:AL:AL:NI:NI;0) 2.9815E+02  -908122.731120; 6.0E+03 N !
PARAMETER G(sigma,NI:AL:NI:AL:AL;0) 2.9815E+02  -917184.417540; 6.0E+03 N !
PARAMETER G(sigma,NI:AL:NI:AL:NI;0) 2.9815E+02  -1425368.846190; 6.0E+03 N !
PARAMETER G(sigma,NI:AL:NI:NI:AL;0) 2.9815E+02  -998988.727260; 6.0E+03 N !
PARAMETER G(sigma,NI:AL:NI:NI:NI;0) 2.9815E+02  -441755.457420; 6.0E+03 N !
PARAMETER G(sigma,NI:NI:AL:AL:AL;0) 2.9815E+02  -241110.396660; 6.0E+03 N !
PARAMETER G(sigma,NI:NI:AL:AL:NI;0) 2.9815E+02  -926673.400830; 6.0E+03 N !
PARAMETER G(sigma,NI:NI:AL:NI:AL;0) 2.9815E+02  -1272966.861360; 6.0E+03 N !
PARAMETER G(sigma,NI:NI:AL:NI:NI;0) 2.9815E+02  -957351.054960; 6.0E+03 N !
PARAMETER G(sigma,NI:NI:NI:AL:AL;0) 2.9815E+02  -863899.099800; 6.0E+03 N !
PARAMETER G(sigma,NI:NI:NI:AL:NI;0) 2.9815E+02  -1052457.580050; 6.0E+03 N !
PARAMETER G(sigma,NI:NI:NI:NI:AL;0) 2.9815E+02  -751041.362250; 6.0E+03 N !
PARAMETER G(sigma,NI:NI:NI:NI:NI;0) 2.9815E+02  252275.289660; 6.0E+03 N !

