
$ Database file written 2010- 9-29
$ From database: SSOL2                   
 ELEMENT /-   ELECTRON_GAS              0.0000E+00  0.0000E+00  0.0000E+00!
 ELEMENT VA   VACUUM                    0.0000E+00  0.0000E+00  0.0000E+00!
 ELEMENT CR   BCC_A2                    5.1996E+01  4.0500E+03  2.3560E+01!
 ELEMENT FE   BCC_A2                    5.5847E+01  4.4890E+03  2.7280E+01!
 ELEMENT MO   BCC_A2                    9.5940E+01  4.5890E+03  2.8560E+01!
 
 
 FUNCTION GHSERCR    2.98150E+02  -8856.94+157.48*T-26.908*T*LN(T)
     +.00189435*T**2-1.47721E-06*T**3+139250*T**(-1);  2.18000E+03  Y
      -34869.344+344.18*T-50*T*LN(T)-2.88526E+32*T**(-9);  6.00000E+03  N !
 FUNCTION GPCRLIQ    2.98150E+02  0;   6.00000E+03   N !
 FUNCTION GPFELIQ    2.98150E+02  0;   6.00000E+03   N !
 FUNCTION GHSERMO    2.98150E+02  -7746.302+131.9197*T-23.56414*T*LN(T)
     -.003443396*T**2+5.66283E-07*T**3+65812*T**(-1)-1.30927E-10*T**4;  
     2.89600E+03  Y
      -30556.41+283.559746*T-42.63829*T*LN(T)-4.849315E+33*T**(-9);  
     5.00000E+03  N !
 FUNCTION GPMOLIQ    2.98150E+02  +0;   6.00000E+03   N !
 FUNCTION GPCRBCC    2.98150E+02  +0;   6.00000E+03   N !
 FUNCTION GHSERFE    2.98150E+02  +1225.7+124.134*T-23.5143*T*LN(T)
     -.00439752*T**2-5.8927E-08*T**3+77359*T**(-1);  1.81100E+03  Y
      -25383.581+299.31255*T-46*T*LN(T)+2.29603E+31*T**(-9);  6.00000E+03  N 
     !
 FUNCTION GFELIQ     2.98150E+02  +12040.17-6.55843*T-3.6751551E-21*T**7
     +GHSERFE;  1.81100E+03  Y
      -10839.7+291.302*T-46*T*LN(T);  6.00000E+03  N !
 FUNCTION GPFEBCC    2.98150E+02  +0;   6.00000E+03   N !
 FUNCTION GPMOBCC    2.98150E+02  +0;   6.00000E+03   N !
 FUNCTION GCRFCC     2.98150E+02  +7284+.163*T+GHSERCR;   6.00000E+03   N !
 FUNCTION GFEFCC     2.98150E+02  -1462.4+8.282*T-1.15*T*LN(T)+6.4E-04*T**2
     +GHSERFE;  1.81100E+03  Y
      -27098.266+300.25256*T-46*T*LN(T)+2.78854E+31*T**(-9);  6.00000E+03  N 
     !
 FUNCTION GMOFCC     2.98150E+02  +15200+.63*T+GHSERMO;   6.00000E+03   N !
 FUNCTION GPFEFCC    2.98150E+02  +0;   6.00000E+03   N !
 FUNCTION GPFEHCP    2.98150E+02  +0;   6.00000E+03   N !
 FUNCTION GPMU1      2.98150E+02  +0;   6.00000E+03   N !
 FUNCTION GPMU2      2.98150E+02  +0;   6.00000E+03   N !
 FUNCTION GPR1       2.98150E+02  +0;   6.00000E+03   N !
 FUNCTION GPR2       2.98150E+02  +0;   6.00000E+03   N !
 FUNCTION GPSIG1     2.98150E+02  +0;   6.00000E+03   N !
 FUNCTION GPSIG2     2.98150E+02  +0;   6.00000E+03   N !
 FUNCTION UN_ASS     2.98150E+02  +0;   300 N !


 TYPE_DEFINITION % SEQ *!
 DEFINE_SYSTEM_DEFAULT ELEMENT 2 !
 DEFAULT_COMMAND DEF_SYS_ELEMENT VA /- !


 PHASE LIQUID:L %  1  1.0  !
    CONSTITUENT LIQUID:L :CR,FE,MO :  !

   PARAMETER G(LIQUID,CR;0)  2.98150E+02  +24339.955-11.420225*T
  +2.37615E-21*T**7+GHSERCR+GPCRLIQ;  2.18000E+03  Y
   +18409.36-8.563683*T+2.88526E+32*T**(-9)+GHSERCR+GPCRLIQ;  6.00000E+03  
  N REF283 !
   PARAMETER G(LIQUID,FE;0)  2.98150E+02  +GFELIQ+GPFELIQ;   6.00000E+03   
  N REF283 !
   PARAMETER G(LIQUID,MO;0)  2.98150E+02  +41831.347-14.694912*T
  +4.24519E-22*T**7+GHSERMO+GPMOLIQ;  2.89600E+03  Y
   +34095.373-11.890046*T+4.849315E+33*T**(-9)+GHSERMO+GPMOLIQ;  
  5.00000E+03  N REF283 !
   PARAMETER G(LIQUID,CR,FE;0)  2.98150E+02  -14550+6.65*T;   6.00000E+03   
  N REF107 !
   PARAMETER G(LIQUID,CR,MO;0)  2.98150E+02  +15810-6.714*T;   6.00000E+03   
  N REF123 !
   PARAMETER G(LIQUID,CR,MO;1)  2.98150E+02  -6220;   6.00000E+03   N REF123 !
   PARAMETER G(LIQUID,FE,MO;0)  2.98150E+02  -6973-.37*T;   6.00000E+03   N 
  REF10 !
   PARAMETER G(LIQUID,FE,MO;1)  2.98150E+02  -9424+4.502*T;   6.00000E+03   
  N REF10 !


 TYPE_DEFINITION & GES A_P_D BCC_A2 MAGNETIC  -1.0    4.00000E-01 !
 PHASE BCC_A2  %&  2 1   3 !
    CONSTITUENT BCC_A2  :CR%,FE%,MO% : VA% :  !

   PARAMETER G(BCC_A2,CR:VA;0)  2.98150E+02  +GHSERCR+GPCRBCC;   
  6.00000E+03   N REF283 !
   PARAMETER TC(BCC_A2,CR:VA;0)  2.98150E+02  -311.5;   6.00000E+03   N 
  REF281 !
   PARAMETER BMAGN(BCC_A2,CR:VA;0)  2.98150E+02  -.01;   6.00000E+03   N 
  REF281 !
   PARAMETER G(BCC_A2,FE:VA;0)  2.98150E+02  +GHSERFE+GPFEBCC;   
  6.00000E+03   N REF283 !
   PARAMETER TC(BCC_A2,FE:VA;0)  2.98150E+02  1043;   6.00000E+03   N REF281 !
   PARAMETER BMAGN(BCC_A2,FE:VA;0)  2.98150E+02  2.22;   6.00000E+03   N 
  REF281 !
   PARAMETER G(BCC_A2,MO:VA;0)  2.98150E+02  +GHSERMO+GPMOBCC;  
  5.00000E+03  N REF283 !
   PARAMETER G(BCC_A2,CR,FE:VA;0)  2.98150E+02  +20500-9.68*T;   6.00000E+03 
    N REF107 !
   PARAMETER TC(BCC_A2,CR,FE:VA;0)  2.98150E+02  1650;   6.00000E+03   N 
  REF107 !
   PARAMETER TC(BCC_A2,CR,FE:VA;1)  2.98150E+02  550;   6.00000E+03   N 
  REF107 !
   PARAMETER BMAGN(BCC_A2,CR,FE:VA;0)  2.98150E+02  -.85;   6.00000E+03   N 
  REF107 !
   PARAMETER G(BCC_A2,CR,MO:VA;0)  2.98150E+02  +28890-7.962*T;   
  6.00000E+03   N REF123 !
   PARAMETER G(BCC_A2,CR,MO:VA;1)  2.98150E+02  +5974-2.428*T;   6.00000E+03 
    N REF123 !
   PARAMETER G(BCC_A2,FE,MO:VA;0)  2.98150E+02  +36818-9.141*T;   
  6.00000E+03   N REF10 !
   PARAMETER G(BCC_A2,FE,MO:VA;1)  2.98150E+02  -362-5.724*T;   6.00000E+03  
   N REF10 !
   PARAMETER TC(BCC_A2,FE,MO:VA;0)  2.98150E+02  335;   6.00000E+03   N 
  REF10 !
   PARAMETER TC(BCC_A2,FE,MO:VA;1)  2.98150E+02  526;   6.00000E+03   N 
  REF10 !


 TYPE_DEFINITION ' GES A_P_D CBCC_A12 MAGNETIC  -3.0    2.80000E-01 !
 PHASE CBCC_A12  %'  2 1   1 !
    CONSTITUENT CBCC_A12  :CR,FE : VA% :  !

   PARAMETER G(CBCC_A12,CR:VA;0)  2.98150E+02  +11087+2.7196*T+GHSERCR;   
  6.00000E+03   N REF283 !
   PARAMETER G(CBCC_A12,FE:VA;0)  2.98150E+02  +4745+GHSERFE;   6.00000E+03 
    N REF283 !


 PHASE CHI_A12  %  3 24   10   24 !
    CONSTITUENT CHI_A12  :CR,FE : CR,MO : CR,FE,MO :  !

   PARAMETER G(CHI_A12,CR:CR:CR;0)  2.98150E+02  +48*GCRFCC+10*GHSERCR
  +109000+123*T;   6.00000E+03   N REF213 !
   PARAMETER G(CHI_A12,FE:CR:CR;0)  2.98150E+02  +24*GFEFCC+10*GHSERCR
  +24*GCRFCC+18300-100*T;   6.00000E+03   N REF115 !
   PARAMETER G(CHI_A12,CR:MO:CR;0)  2.98150E+02  +24*GCRFCC+10*GHSERMO
  +24*GCRFCC-26000;   6.00000E+03   N REF213 !
   PARAMETER G(CHI_A12,FE:MO:CR;0)  2.98150E+02  +24*GFEFCC+10*GHSERMO
  +24*GCRFCC+32555-385*T;   6.00000E+03   N REF213 !
   PARAMETER G(CHI_A12,CR:CR:FE;0)  2.98150E+02  +24*GCRFCC+10*GHSERCR
  +24*GFEFCC+500000;   6.00000E+03   N REF213 !
   PARAMETER G(CHI_A12,FE:CR:FE;0)  2.98150E+02  +48*GFEFCC+10*GHSERCR
  +57300-100*T;   6.00000E+03   N REF115 !
   PARAMETER G(CHI_A12,CR:MO:FE;0)  2.98150E+02  +24*GCRFCC+10*GHSERMO
  +24*GFEFCC+500000;   6.00000E+03   N REF213 !
   PARAMETER G(CHI_A12,FE:MO:FE;0)  2.98150E+02  +48*GFEFCC+10*GHSERMO
  +305210-270*T;   6.00000E+03   N REF115 !
   PARAMETER G(CHI_A12,CR:CR:MO;0)  2.98150E+02  +24*GCRFCC+10*GHSERCR
  +24*GMOFCC+500000;   6.00000E+03   N REF213 !
   PARAMETER G(CHI_A12,FE:CR:MO;0)  2.98150E+02  +24*GFEFCC+10*GHSERCR
  +24*GMOFCC+100000;   6.00000E+03   N REF115 !
   PARAMETER G(CHI_A12,CR:MO:MO;0)  2.98150E+02  +24*GCRFCC+10*GHSERMO
  +24*GMOFCC+500000;   6.00000E+03   N REF213 !
   PARAMETER G(CHI_A12,FE:MO:MO;0)  2.98150E+02  +24*GFEFCC+10*GHSERMO
  +24*GMOFCC+97300-100*T;   6.00000E+03   N REF115 !


 PHASE CR3SI  %  2 3   1 !
    CONSTITUENT CR3SI  :CR% : CR :  !

   PARAMETER G(CR3SI,CR:CR;0)  2.98150E+02  +17008.82+4*T+4*GHSERCR;   
  6.00000E+03   N REF90 !


 PHASE CRSI2  %  2 1   2 !
    CONSTITUENT CRSI2  :CR% : CR :  !

   PARAMETER G(CRSI2,CR:CR;0)  2.98150E+02  +10000+10*T+3*GHSERCR;   
  6.00000E+03   N REF90 !


 PHASE CUB_A13  %  2 1   1 !
    CONSTITUENT CUB_A13  :CR,FE : VA% :  !

   PARAMETER G(CUB_A13,CR:VA;0)  2.98150E+02  +15899+.6276*T+GHSERCR;   
  6.00000E+03   N REF283 !
   PARAMETER G(CUB_A13,FE:VA;0)  2.98150E+02  +3745+GHSERFE;   6.00000E+03  
   N REF283 !


 TYPE_DEFINITION ( GES A_P_D FCC_A1 MAGNETIC  -3.0    2.80000E-01 !
 PHASE FCC_A1  %(  2 1   1 !
    CONSTITUENT FCC_A1  :CR,FE%,MO : VA% :  !

   PARAMETER G(FCC_A1,CR:VA;0)  2.98150E+02  +GCRFCC+GPCRBCC;   
  6.00000E+03   N REF281 !
   PARAMETER TC(FCC_A1,CR:VA;0)  2.98150E+02  -1109;   6.00000E+03   N 
  REF281 !
   PARAMETER BMAGN(FCC_A1,CR:VA;0)  2.98150E+02  -2.46;   6.00000E+03   N 
  REF281 !
   PARAMETER G(FCC_A1,FE:VA;0)  2.98150E+02  +GFEFCC+GPFEFCC;   
  6.00000E+03   N REF283 !
   PARAMETER TC(FCC_A1,FE:VA;0)  2.98150E+02  -201;   6.00000E+03   N REF281 !
   PARAMETER BMAGN(FCC_A1,FE:VA;0)  2.98150E+02  -2.1;   6.00000E+03   N 
  REF281 !
   PARAMETER G(FCC_A1,MO:VA;0)  2.98150E+02  +15200+.63*T+GHSERMO+GPMOBCC; 
   5.00000E+03  N REF283 !
   PARAMETER G(FCC_A1,CR,FE:VA;0)  2.98150E+02  +10833-7.477*T;   
  6.00000E+03   N REF107 !
   PARAMETER G(FCC_A1,CR,FE:VA;1)  2.98150E+02  1410;   6.00000E+03   N 
  REF107 !
   PARAMETER G(FCC_A1,CR,MO:VA;0)  2.98150E+02  +28890-7.962*T;   
  6.00000E+03   N REF58 !
   PARAMETER G(FCC_A1,CR,MO:VA;1)  2.98150E+02  +5974-2.428*T;   6.00000E+03 
    N REF58 !
   PARAMETER G(FCC_A1,FE,MO:VA;0)  2.98150E+02  +28347-17.691*T;   
  6.00000E+03   N REF10 !


 PHASE FE4N  %  2 4   1 !
    CONSTITUENT FE4N  :FE : VA :  !

   PARAMETER G(FE4N,FE:VA;0)  2.98150E+02  +4*GFEFCC+10;   6.00000E+03   N 
  REF319 !


 TYPE_DEFINITION ) GES A_P_D HCP_A3 MAGNETIC  -3.0    2.80000E-01 !
 PHASE HCP_A3  %)  2 1   .5 !
    CONSTITUENT HCP_A3  :CR,FE,MO : VA% :  !

   PARAMETER G(HCP_A3,CR:VA;0)  2.98150E+02  +4438+GHSERCR+GPCRBCC;   
  6.00000E+03   N REF283 !
   PARAMETER TC(HCP_A3,CR:VA;0)  2.98150E+02  -1109;   6.00000E+03   N 
  REF281 !
   PARAMETER BMAGN(HCP_A3,CR:VA;0)  2.98150E+02  -2.46;   6.00000E+03   N 
  REF281 !
   PARAMETER G(HCP_A3,FE:VA;0)  2.98150E+02  -3705.78+12.591*T-1.15*T*LN(T)
  +6.4E-04*T**2+GHSERFE+GPFEHCP;  1.81100E+03  Y
   -3957.199+5.24951*T+4.9251E+30*T**(-9)+GHSERFE+GPFEHCP;  6.00000E+03  N 
  REF283 !
   PARAMETER G(HCP_A3,MO:VA;0)  2.98150E+02  +11550+GHSERMO+GPMOBCC;  
  5.00000E+03  N REF283 !
   PARAMETER G(HCP_A3,CR,FE:VA;0)  2.98150E+02  +10833-7.477*T;   
  6.00000E+03   N REF126 !
   PARAMETER G(HCP_A3,CR,MO:VA;0)  2.98150E+02  +28890-7.962*T;   
  6.00000E+03   N REF117 !
   PARAMETER G(HCP_A3,CR,MO:VA;1)  2.98150E+02  +5974-2.428*T;   6.00000E+03 
    N REF117 !
   PARAMETER G(HCP_A3,FE,MO:VA;0)  2.98150E+02  +28347-17.691*T;   
  6.00000E+03   N REF10 !


 PHASE LAVES_PHASE  %  2 2   1 !
    CONSTITUENT LAVES_PHASE  :CR,FE : MO :  !

   PARAMETER G(LAVES_PHASE,CR:MO;0)  2.98150E+02  +2*GCRFCC+GHSERMO-8000
  -6*T;   6.00000E+03   N REF214 !
   PARAMETER G(LAVES_PHASE,FE:MO;0)  2.98150E+02  -10798-.132*T+2*GFEFCC
  +GHSERMO;   6.00000E+03   N REF10 !


 PHASE MC_ETA  %  2 1   1 !
    CONSTITUENT MC_ETA  :MO% : VA :  !

   PARAMETER G(MC_ETA,MO:VA;0)  2.98150E+02  +GHSERMO+15200+.63*T;   
  6.00000E+03   N REF113 !


 PHASE MONI_DELTA  %  3 24   20   12 !
    CONSTITUENT MONI_DELTA  :CR,FE : CR,FE,MO : MO :  !

   PARAMETER G(MONI_DELTA,CR:CR:MO;0)  2.98150E+02  +24*GCRFCC+20*GHSERCR
  +12*GHSERMO+50000;   6.00000E+03   N REF133 !
   PARAMETER G(MONI_DELTA,FE:CR:MO;0) 298.15 UN_ASS; 300 N REF0 !
   PARAMETER G(MONI_DELTA,CR:FE:MO;0) 298.15 UN_ASS; 300 N REF0 !
   PARAMETER G(MONI_DELTA,FE:FE:MO;0)  2.98150E+02  +24*GFEFCC+20*GHSERFE
  +12*GHSERMO+100000;   6.00000E+03   N REF132 !
   PARAMETER G(MONI_DELTA,CR:MO:MO;0)  2.98150E+02  +24*GCRFCC+32*GHSERMO
  +100000;   6.00000E+03   N REF133 !
   PARAMETER G(MONI_DELTA,FE:MO:MO;0)  2.98150E+02  +24*GFEFCC+32*GHSERMO
  +100000;   6.00000E+03   N REF132 !


 PHASE MU_PHASE  %  3 7   2   4 !
    CONSTITUENT MU_PHASE  :CR,FE : MO : CR,FE,MO :  !

   PARAMETER G(MU_PHASE,CR:MO:CR;0)  2.98150E+02  +7*GCRFCC+2*GHSERMO
  +4*GHSERCR+130000-100*T;   6.00000E+03   N REF115 !
   PARAMETER G(MU_PHASE,FE:MO:CR;0)  2.98150E+02  +7*GFEFCC+2*GHSERMO
  +4*GHSERCR+130000-100*T;   6.00000E+03   N REF115 !
   PARAMETER G(MU_PHASE,CR:MO:FE;0)  2.98150E+02  +7*GCRFCC+2*GHSERMO
  +4*GHSERFE+130000-100*T;   6.00000E+03   N REF115 !
   PARAMETER G(MU_PHASE,FE:MO:FE;0)  2.98150E+02  +39475-6.032*T+7*GFEFCC
  +2*GHSERMO+4*GHSERFE+GPMU1;   6.00000E+03   N REF10 !
   PARAMETER G(MU_PHASE,CR:MO:MO;0)  2.98150E+02  +7*GCRFCC+6*GHSERMO
  +130000-100*T;   6.00000E+03   N REF115 !
   PARAMETER G(MU_PHASE,FE:MO:MO;0)  2.98150E+02  -46663-5.891*T+7*GFEFCC
  +6*GHSERMO+GPMU2;   6.00000E+03   N REF10 !
   PARAMETER G(MU_PHASE,CR,FE:MO:MO;0)  2.98150E+02  -45000;   6.00000E+03   
  N REF115 !


 PHASE P_PHASE  %  3 24   20   12 !
    CONSTITUENT P_PHASE  :CR,FE : CR,FE,MO : MO :  !

   PARAMETER G(P_PHASE,CR:CR:MO;0)  2.98150E+02  +24*GCRFCC+20*GHSERCR
  +12*GHSERMO+252300-100*T;   6.00000E+03   N REF133 !
   PARAMETER G(P_PHASE,FE:CR:MO;0) 298.15 UN_ASS; 300 N REF0 !
   PARAMETER G(P_PHASE,CR:FE:MO;0) 298.15 UN_ASS; 300 N REF0 !
   PARAMETER G(P_PHASE,FE:FE:MO;0)  2.98150E+02  +24*GFEFCC+20*GHSERFE
  +12*GHSERMO+111361;   6.00000E+03   N REF132 !
   PARAMETER G(P_PHASE,CR:MO:MO;0)  2.98150E+02  +24*GCRFCC+32*GHSERMO
  +95573-200*T;   6.00000E+03   N REF133 !
   PARAMETER G(P_PHASE,FE:MO:MO;0)  2.98150E+02  +24*GFEFCC+32*GHSERMO
  +362525-332.7*T;   6.00000E+03   N REF132 !


 PHASE R_PHASE  %  3 27   14   12 !
    CONSTITUENT R_PHASE  :CR,FE : MO : CR,FE,MO :  !

   PARAMETER G(R_PHASE,CR:MO:CR;0)  2.98150E+02  +27*GCRFCC+14*GHSERMO
  +12*GHSERCR-20000;   6.00000E+03   N REF115 !
   PARAMETER G(R_PHASE,FE:MO:CR;0)  2.98150E+02  +27*GFEFCC+14*GHSERMO
  +12*GHSERCR+600260-620*T;   6.00000E+03   N REF115 !
   PARAMETER G(R_PHASE,CR:MO:FE;0)  2.98150E+02  +27*GCRFCC+14*GHSERMO
  +12*GHSERFE+645260-620*T;   6.00000E+03   N REF115 !
   PARAMETER G(R_PHASE,FE:MO:FE;0)  2.98150E+02  -77487-50.486*T+27*GFEFCC
  +14*GHSERMO+12*GHSERFE+GPR1;   6.00000E+03   N REF10 !
   PARAMETER G(R_PHASE,CR:MO:MO;0)  2.98150E+02  +27*GCRFCC+26*GHSERMO
  -20000;   6.00000E+03   N REF115 !
   PARAMETER G(R_PHASE,FE:MO:MO;0)  2.98150E+02  +313474-289.472*T
  +27*GFEFCC+26*GHSERMO+GPR2;   6.00000E+03   N REF10 !


 PHASE SIGMA  %  3 8   4   18 !
    CONSTITUENT SIGMA  :FE : CR,MO : CR,FE,MO :  !

   PARAMETER G(SIGMA,FE:CR:CR;0)  2.98150E+02  +8*GFEFCC+22*GHSERCR+92300
  -95.96*T+GPSIG1;   6.00000E+03   N REF107 !
   PARAMETER G(SIGMA,FE:MO:CR;0)  2.98150E+02  +8*GFEFCC+4*GHSERMO
  +18*GHSERCR+488480-360*T;   6.00000E+03   N REF115 !
   PARAMETER G(SIGMA,FE:CR:FE;0)  2.98150E+02  +8*GFEFCC+4*GHSERCR
  +18*GHSERFE+117300-95.96*T+GPSIG2;   6.00000E+03   N REF107 !
   PARAMETER G(SIGMA,FE:MO:FE;0)  2.98150E+02  -1813-27.272*T+8*GFEFCC
  +18*GHSERFE+4*GHSERMO;   6.00000E+03   N REF10 !
   PARAMETER G(SIGMA,FE:CR:MO;0)  2.98150E+02  +8*GFEFCC+4*GHSERCR
  +18*GHSERMO+312580-260*T;   6.00000E+03   N REF115 !
   PARAMETER G(SIGMA,FE:MO:MO;0)  2.98150E+02  +83326-69.618*T+8*GFEFCC
  +22*GHSERMO;   6.00000E+03   N REF10 !
   PARAMETER G(SIGMA,FE:CR:CR,MO;0)  2.98150E+02  -148000;   6.00000E+03   N 
  REF115 !
   PARAMETER G(SIGMA,FE:MO:CR,MO;0)  2.98150E+02  121000;   6.00000E+03   N 
  REF115 !
   PARAMETER G(SIGMA,FE:CR:FE,MO;0)  2.98150E+02  570000;   6.00000E+03   N 
  REF115 !
   PARAMETER G(SIGMA,FE:MO:FE,MO;0)  2.98150E+02  222909;   6.00000E+03   N 
  REF10 !

 LIST_OF_REFERENCES
 NUMBER  SOURCE
   REF283  'Alan Dinsdale, SGTE Data for Pure Elements, 
          Calphad Vol 15(1991) p 317-425, 
          also in NPL Report DMA(A)195 Rev. August 1990'
   REF213  'P. Gustafson, TRITA-MAC 342, (1987); CR-FE-W'
   REF115  'J-O Andersson, Met Trans A, Vol 19A, (1988) p 1385-1394 
          TRITA 0322 (1986); CR-FE-MO'
   REF90   'I Ansara, unpublished work (1991); Cr-Si'
   REF281  'Alan Dinsdale, SGTE Data for Pure Elements, NPL Report DMA(A)195 
          September 1989'
   REF319  'H. Du and M. Hillert, revision; C-Fe-N'
   REF214  'P. Gustafson, TRITA-MAC 354 (1987); C-Cr-Fe-Mo-W'
   REF10   'A. Fernandez Guillermet, CALPHAD Vol 6 (1982), p 127-140 
          (sigma phase revised 1986), TRITA-MAC 200 (1982); FE-MO'
   REF113  'J-O Andersson, Calphad Vol 12 (1988), p 9-23 
          TRITA 0321 (1986); C-FE-MO'
   REF133  'K. Frisk, TRITA-MAC 429 (1990); CR-MO-NI'
   REF132  'K. Frisk, TRITA-MAC 428 (1990); FE-MO-NI'
   REF107  'J-O Andersson, B. Sundman, CALPHAD Vol 11, (1987), p 83-92 
          TRITA 0270 (1986); CR-FE'
   REF123  'K. Frisk, Report D 60, KTH, (1984); CR-MO'
   REF58   'B. Sundman, TEST'
   REF126  'K. Frisk, Metall. Trans. Vol 21A (1990) p 2477-2488, 
          TRITA 0409 (1989); CR-FE-N'
   REF117  'J-O Andersson, TRITA-MAC 323 (1986); C-CR-FE-MO'
  ! 
 
