 ELEMENT /-   ELECTRON_GAS	 0.000000e+00	 0.000000e+00	 0.000000e+00!
 ELEMENT CR         BCC_A2	 5.199600e+01	 4.050000e+03	 2.356000e+01!
 ELEMENT FE         BCC_A2	 5.584700e+01	 4.489000e+03	 2.728000e+01!
 ELEMENT MO         BCC_A2	 9.594000e+01	 4.589000e+03	 2.856000e+01!
 ELEMENT VA         VACUUM	 0.000000e+00	 0.000000e+00	 0.000000e+00!

 FUNCTION  GCRFCC	2.981500e+02	+7284+.163*T+GHSERCR;	6.000000e+03 N !
 FUNCTION  GFEFCC	2.981500e+02	-1462.4+8.282*T-1.15*T*LN(T)+6.4E-04*T**2+GHSERFE;	1.811000e+03 Y 
	-27098.266+300.25256*T-46*T*LN(T)+2.78854E+31*T**(-9);	6.000000e+03 N !
 FUNCTION  GFELIQ	2.981500e+02	+12040.17-6.55843*T-3.6751551E-21*T**7+GHSERFE;	1.811000e+03 Y 
	-10839.7+291.302*T-46*T*LN(T);	6.000000e+03 N !
 FUNCTION  GHSERCR	2.981500e+02	-8856.94+157.48*T-26.908*T*LN(T)+.00189435*T**2-1.47721E-06*T**3+139250*T**(-1);	2.180000e+03 Y 
	-34869.344+344.18*T-50*T*LN(T)-2.88526E+32*T**(-9);	6.000000e+03 N !
 FUNCTION  GHSERFE	2.981500e+02	+1225.7+124.134*T-23.5143*T*LN(T)-.00439752*T**2-5.8927E-08*T**3+77359*T**(-1);	1.811000e+03 Y 
	-25383.581+299.31255*T-46*T*LN(T)+2.29603E+31*T**(-9);	6.000000e+03 N !
 FUNCTION  GHSERMO	2.981500e+02	-7746.302+131.9197*T-23.56414*T*LN(T)-.003443396*T**2+5.66283E-07*T**3+65812*T**(-1)-1.30927E-10*T**4;	2.896000e+03 Y 
	-30556.41+283.559746*T-42.63829*T*LN(T)-4.849315E+33*T**(-9);	5.000000e+03 N !
 FUNCTION  GMOFCC	2.981500e+02	+15200+.63*T+GHSERMO;	6.000000e+03 N !
 FUNCTION  GPCRBCC	2.981500e+02	  +0;	6.000000e+03 N !
 FUNCTION  GPCRLIQ	2.981500e+02	   0;	6.000000e+03 N !
 FUNCTION  GPFEBCC	2.981500e+02	  +0;	6.000000e+03 N !
 FUNCTION  GPFEFCC	2.981500e+02	  +0;	6.000000e+03 N !
 FUNCTION  GPFEHCP	2.981500e+02	  +0;	6.000000e+03 N !
 FUNCTION  GPFELIQ	2.981500e+02	   0;	6.000000e+03 N !
 FUNCTION  GPMOBCC	2.981500e+02	  +0;	6.000000e+03 N !
 FUNCTION  GPMOLIQ	2.981500e+02	  +0;	6.000000e+03 N !
 FUNCTION  GPMU1	2.981500e+02	  +0;	6.000000e+03 N !
 FUNCTION  GPMU2	2.981500e+02	  +0;	6.000000e+03 N !
 FUNCTION  GPR1	2.981500e+02	  +0;	6.000000e+03 N !
 FUNCTION  GPR2	2.981500e+02	  +0;	6.000000e+03 N !
 FUNCTION  GPSIG1	2.981500e+02	  +0;	6.000000e+03 N !
 FUNCTION  GPSIG2	2.981500e+02	  +0;	6.000000e+03 N !
 FUNCTION  R	0.000000e+00	8.314	6.000000e+03 N !
 FUNCTION  UN_ASS	2.981500e+02	  +0;	3.000000e+02 N !

 TYPE_DEFINITION % SEQ *! 
 DEFINE_SYSTEM_DEFAULT ELEMENT 2 !
 DEFAULT_COMMAND DEF_SYS_ELEMENT VA /- !

 PHASE BCC_A2  %  2 1.000000 3.000000 !
   CONSTITUENT  BCC_A2 :CR,FE,MO:VA: !
PARAMETER G(BCC_A2,CR,FE:VA;0) 	2.981500e+02	 550;	6.000000e+03 N !
PARAMETER G(BCC_A2,CR,MO:VA;0) 	2.981500e+02	+5974-2.428*T;	6.000000e+03 N !
PARAMETER G(BCC_A2,CR:VA;0) 	2.981500e+02	-311.5;	6.000000e+03 N !
PARAMETER G(BCC_A2,FE,MO:VA;0) 	2.981500e+02	 526;	6.000000e+03 N !
PARAMETER G(BCC_A2,FE:VA;0) 	2.981500e+02	1043;	6.000000e+03 N !
PARAMETER G(BCC_A2,MO:VA;0) 	2.981500e+02	+GHSERMO+GPMOBCC;	5.000000e+03 N !

 PHASE CBCC_A12  %  2 1.000000 1.000000 !
   CONSTITUENT  CBCC_A12 :CR,FE:VA: !
PARAMETER G(CBCC_A12,CR:VA;0) 	2.981500e+02	+11087+2.7196*T+GHSERCR;	6.000000e+03 N !
PARAMETER G(CBCC_A12,FE:VA;0) 	2.981500e+02	+4745+GHSERFE;	6.000000e+03 N !

 PHASE CHI_A12  %  3 24.000000 10.000000 24.000000 !
   CONSTITUENT  CHI_A12 :CR,FE:CR,MO:CR,FE,MO: !
PARAMETER G(CHI_A12,CR:CR:FE;0) 	2.981500e+02	+24*GCRFCC+10*GHSERCR+24*GFEFCC+500000;	6.000000e+03 N !
PARAMETER G(CHI_A12,CR:CR:MO;0) 	2.981500e+02	+24*GCRFCC+10*GHSERCR+24*GMOFCC+500000;	6.000000e+03 N !
PARAMETER G(CHI_A12,CR:MO:CR;0) 	2.981500e+02	+24*GCRFCC+10*GHSERMO+24*GCRFCC-26000;	6.000000e+03 N !
PARAMETER G(CHI_A12,CR:MO:FE;0) 	2.981500e+02	+24*GCRFCC+10*GHSERMO+24*GFEFCC+500000;	6.000000e+03 N !
PARAMETER G(CHI_A12,CR:MO:MO;0) 	2.981500e+02	+24*GCRFCC+10*GHSERMO+24*GMOFCC+500000;	6.000000e+03 N !
PARAMETER G(CHI_A12,FE:CR:CR;0) 	2.981500e+02	+24*GFEFCC+10*GHSERCR+24*GCRFCC+18300-100*T;	6.000000e+03 N !
PARAMETER G(CHI_A12,FE:CR:FE;0) 	2.981500e+02	+48*GFEFCC+10*GHSERCR+57300-100*T;	6.000000e+03 N !
PARAMETER G(CHI_A12,FE:CR:MO;0) 	2.981500e+02	+24*GFEFCC+10*GHSERCR+24*GMOFCC+100000;	6.000000e+03 N !
PARAMETER G(CHI_A12,FE:MO:CR;0) 	2.981500e+02	+24*GFEFCC+10*GHSERMO+24*GCRFCC+32555-385*T;	6.000000e+03 N !
PARAMETER G(CHI_A12,FE:MO:FE;0) 	2.981500e+02	+48*GFEFCC+10*GHSERMO+305210-270*T;	6.000000e+03 N !
PARAMETER G(CHI_A12,FE:MO:MO;0) 	2.981500e+02	+24*GFEFCC+10*GHSERMO+24*GMOFCC+97300-100*T;	6.000000e+03 N !

 PHASE CR3SI  %  2 3.000000 1.000000 !
   CONSTITUENT  CR3SI :CR:CR: !
PARAMETER G(CR3SI,CR:CR;0) 	2.981500e+02	+17008.82+4*T+4*GHSERCR;	6.000000e+03 N !

 PHASE CRSI2  %  2 1.000000 2.000000 !
   CONSTITUENT  CRSI2 :CR:CR: !
PARAMETER G(CRSI2,CR:CR;0) 	2.981500e+02	+10000+10*T+3*GHSERCR;	6.000000e+03 N !

 PHASE CUB_A13  %  2 1.000000 1.000000 !
   CONSTITUENT  CUB_A13 :CR,FE:VA: !
PARAMETER G(CUB_A13,CR:VA;0) 	2.981500e+02	+15899+.6276*T+GHSERCR;	6.000000e+03 N !
PARAMETER G(CUB_A13,FE:VA;0) 	2.981500e+02	+3745+GHSERFE;	6.000000e+03 N !

 PHASE FCC_A1  %  2 1.000000 1.000000 !
   CONSTITUENT  FCC_A1 :CR,FE,MO:VA: !
PARAMETER G(FCC_A1,CR,FE:VA;0) 	2.981500e+02	1410;	6.000000e+03 N !
PARAMETER G(FCC_A1,CR,MO:VA;0) 	2.981500e+02	+5974-2.428*T;	6.000000e+03 N !
PARAMETER G(FCC_A1,CR:VA;0) 	2.981500e+02	-1109;	6.000000e+03 N !
PARAMETER G(FCC_A1,FE,MO:VA;0) 	2.981500e+02	+28347-17.691*T;	6.000000e+03 N !
PARAMETER G(FCC_A1,FE:VA;0) 	2.981500e+02	-201;	6.000000e+03 N !
PARAMETER G(FCC_A1,MO:VA;0) 	2.981500e+02	+15200+.63*T+GHSERMO+GPMOBCC;	5.000000e+03 N !

 PHASE FE4N  %  2 4.000000 1.000000 !
   CONSTITUENT  FE4N :FE:VA: !
PARAMETER G(FE4N,FE:VA;0) 	2.981500e+02	+4*GFEFCC+10;	6.000000e+03 N !

 PHASE HCP_A3  %  2 1.000000 0.500000 !
   CONSTITUENT  HCP_A3 :CR,FE,MO:VA: !
PARAMETER G(HCP_A3,CR,FE:VA;0) 	2.981500e+02	+10833-7.477*T;	6.000000e+03 N !
PARAMETER G(HCP_A3,CR,MO:VA;0) 	2.981500e+02	+5974-2.428*T;	6.000000e+03 N !
PARAMETER G(HCP_A3,CR:VA;0) 	2.981500e+02	-1109;	6.000000e+03 N !
PARAMETER G(HCP_A3,FE,MO:VA;0) 	2.981500e+02	+28347-17.691*T;	6.000000e+03 N !
PARAMETER G(HCP_A3,FE:VA;0) 	2.981500e+02	-3705.78+12.591*T-1.15*T*LN(T)+6.4E-04*T^2+GHSERFE+GPFEHCP;	1.811000e+03 Y 
	-3957.199+5.24951*T+4.9251E+30*T^(-9)+GHSERFE+GPFEHCP;	6.000000e+03 N !
PARAMETER G(HCP_A3,MO:VA;0) 	2.981500e+02	+11550+GHSERMO+GPMOBCC;	5.000000e+03 N !

 PHASE LAVES_PHASE  %  2 2.000000 1.000000 !
   CONSTITUENT  LAVES_PHASE :CR,FE:MO: !
PARAMETER G(LAVES_PHASE,CR:MO;0) 	2.981500e+02	+2*GCRFCC+GHSERMO-8000-6*T;	6.000000e+03 N !
PARAMETER G(LAVES_PHASE,FE:MO;0) 	2.981500e+02	-10798-.132*T+2*GFEFCC+GHSERMO;	6.000000e+03 N !

 PHASE LIQUID:L  %  1 1.000000 !
   CONSTITUENT  LIQUID:L :CR,FE,MO: !
PARAMETER G(LIQUID,CR;0) 	2.981500e+02	+24339.955-11.420225*T+2.37615E-21*T^7+GHSERCR+GPCRLIQ;	2.180000e+03 Y 
	+18409.36-8.563683*T+2.88526E+32*T^(-9)+GHSERCR+GPCRLIQ;	6.000000e+03 N !
PARAMETER G(LIQUID,CR,FE;0) 	2.981500e+02	-14550+6.65*T;	6.000000e+03 N !
PARAMETER G(LIQUID,CR,MO;0) 	2.981500e+02	-6220;	6.000000e+03 N !
PARAMETER G(LIQUID,FE;0) 	2.981500e+02	+GFELIQ+GPFELIQ;	6.000000e+03 N !
PARAMETER G(LIQUID,FE,MO;0) 	2.981500e+02	-9424+4.502*T;	6.000000e+03 N !
PARAMETER G(LIQUID,MO;0) 	2.981500e+02	+41831.347-14.694912*T+4.24519E-22*T^7+GHSERMO+GPMOLIQ;	2.896000e+03 Y 
	+34095.373-11.890046*T+4.849315E+33*T^(-9)+GHSERMO+GPMOLIQ;	5.000000e+03 N !

 PHASE MC_ETA  %  2 1.000000 1.000000 !
   CONSTITUENT  MC_ETA :MO:VA: !
PARAMETER G(MC_ETA,MO:VA;0) 	2.981500e+02	+GHSERMO+15200+.63*T;	6.000000e+03 N !

 PHASE MONI_DELTA  %  3 24.000000 20.000000 12.000000 !
   CONSTITUENT  MONI_DELTA :CR,FE:CR,FE,MO:MO: !
PARAMETER G(MONI_DELTA,CR:CR:MO;0) 	2.981500e+02	+24*GCRFCC+20*GHSERCR+12*GHSERMO+50000;	6.000000e+03 N !
PARAMETER G(MONI_DELTA,CR:FE:MO;0) 	2.981500e+02	UN_ASS;	3.000000e+02 N !
PARAMETER G(MONI_DELTA,CR:MO:MO;0) 	2.981500e+02	+24*GCRFCC+32*GHSERMO+100000;	6.000000e+03 N !
PARAMETER G(MONI_DELTA,FE:CR:MO;0) 	2.981500e+02	UN_ASS;	3.000000e+02 N !
PARAMETER G(MONI_DELTA,FE:FE:MO;0) 	2.981500e+02	+24*GFEFCC+20*GHSERFE+12*GHSERMO+100000;	6.000000e+03 N !
PARAMETER G(MONI_DELTA,FE:MO:MO;0) 	2.981500e+02	+24*GFEFCC+32*GHSERMO+100000;	6.000000e+03 N !

 PHASE MU_PHASE  %  3 7.000000 2.000000 4.000000 !
   CONSTITUENT  MU_PHASE :CR,FE:MO:CR,FE,MO: !
PARAMETER G(MU_PHASE,CR,FE:MO:MO;0) 	2.981500e+02	-45000;	6.000000e+03 N !
PARAMETER G(MU_PHASE,CR:MO:CR;0) 	2.981500e+02	+7*GCRFCC+2*GHSERMO+4*GHSERCR+130000-100*T;	6.000000e+03 N !
PARAMETER G(MU_PHASE,CR:MO:FE;0) 	2.981500e+02	+7*GCRFCC+2*GHSERMO+4*GHSERFE+130000-100*T;	6.000000e+03 N !
PARAMETER G(MU_PHASE,CR:MO:MO;0) 	2.981500e+02	+7*GCRFCC+6*GHSERMO+130000-100*T;	6.000000e+03 N !
PARAMETER G(MU_PHASE,FE:MO:CR;0) 	2.981500e+02	+7*GFEFCC+2*GHSERMO+4*GHSERCR+130000-100*T;	6.000000e+03 N !
PARAMETER G(MU_PHASE,FE:MO:FE;0) 	2.981500e+02	+39475-6.032*T+7*GFEFCC+2*GHSERMO+4*GHSERFE+GPMU1;	6.000000e+03 N !
PARAMETER G(MU_PHASE,FE:MO:MO;0) 	2.981500e+02	-46663-5.891*T+7*GFEFCC+6*GHSERMO+GPMU2;	6.000000e+03 N !

 PHASE P_PHASE  %  3 24.000000 20.000000 12.000000 !
   CONSTITUENT  P_PHASE :CR,FE:CR,FE,MO:MO: !
PARAMETER G(P_PHASE,CR:CR:MO;0) 	2.981500e+02	+24*GCRFCC+20*GHSERCR+12*GHSERMO+252300-100*T;	6.000000e+03 N !
PARAMETER G(P_PHASE,CR:FE:MO;0) 	2.981500e+02	UN_ASS;	3.000000e+02 N !
PARAMETER G(P_PHASE,CR:MO:MO;0) 	2.981500e+02	+24*GCRFCC+32*GHSERMO+95573-200*T;	6.000000e+03 N !
PARAMETER G(P_PHASE,FE:CR:MO;0) 	2.981500e+02	UN_ASS;	3.000000e+02 N !
PARAMETER G(P_PHASE,FE:FE:MO;0) 	2.981500e+02	+24*GFEFCC+20*GHSERFE+12*GHSERMO+111361;	6.000000e+03 N !
PARAMETER G(P_PHASE,FE:MO:MO;0) 	2.981500e+02	+24*GFEFCC+32*GHSERMO+362525-332.7*T;	6.000000e+03 N !

 PHASE R_PHASE  %  3 27.000000 14.000000 12.000000 !
   CONSTITUENT  R_PHASE :CR,FE:MO:CR,FE,MO: !
PARAMETER G(R_PHASE,CR:MO:CR;0) 	2.981500e+02	+27*GCRFCC+14*GHSERMO+12*GHSERCR-20000;	6.000000e+03 N !
PARAMETER G(R_PHASE,CR:MO:FE;0) 	2.981500e+02	+27*GCRFCC+14*GHSERMO+12*GHSERFE+645260-620*T;	6.000000e+03 N !
PARAMETER G(R_PHASE,CR:MO:MO;0) 	2.981500e+02	+27*GCRFCC+26*GHSERMO-20000;	6.000000e+03 N !
PARAMETER G(R_PHASE,FE:MO:CR;0) 	2.981500e+02	+27*GFEFCC+14*GHSERMO+12*GHSERCR+600260-620*T;	6.000000e+03 N !
PARAMETER G(R_PHASE,FE:MO:FE;0) 	2.981500e+02	-77487-50.486*T+27*GFEFCC+14*GHSERMO+12*GHSERFE+GPR1;	6.000000e+03 N !
PARAMETER G(R_PHASE,FE:MO:MO;0) 	2.981500e+02	+313474-289.472*T+27*GFEFCC+26*GHSERMO+GPR2;	6.000000e+03 N !

 PHASE SIGMA  %  3 8.000000 4.000000 18.000000 !
   CONSTITUENT  SIGMA :FE:CR,MO:CR,FE,MO: !
PARAMETER G(SIGMA,FE:CR:CR;0) 	2.981500e+02	+8*GFEFCC+22*GHSERCR+92300-95.96*T+GPSIG1;	6.000000e+03 N !
PARAMETER G(SIGMA,FE:CR:CR,MO;0) 	2.981500e+02	-148000;	6.000000e+03 N !
PARAMETER G(SIGMA,FE:CR:FE;0) 	2.981500e+02	+8*GFEFCC+4*GHSERCR+18*GHSERFE+117300-95.96*T+GPSIG2;	6.000000e+03 N !
PARAMETER G(SIGMA,FE:CR:FE,MO;0) 	2.981500e+02	570000;	6.000000e+03 N !
PARAMETER G(SIGMA,FE:CR:MO;0) 	2.981500e+02	+8*GFEFCC+4*GHSERCR+18*GHSERMO+312580-260*T;	6.000000e+03 N !
PARAMETER G(SIGMA,FE:MO:CR;0) 	2.981500e+02	+8*GFEFCC+4*GHSERMO+18*GHSERCR+488480-360*T;	6.000000e+03 N !
PARAMETER G(SIGMA,FE:MO:CR,MO;0) 	2.981500e+02	121000;	6.000000e+03 N !
PARAMETER G(SIGMA,FE:MO:FE;0) 	2.981500e+02	-1813-27.272*T+8*GFEFCC+18*GHSERFE+4*GHSERMO;	6.000000e+03 N !
PARAMETER G(SIGMA,FE:MO:FE,MO;0) 	2.981500e+02	222909;	6.000000e+03 N !
PARAMETER G(SIGMA,FE:MO:MO;0) 	2.981500e+02	+83326-69.618*T+8*GFEFCC+22*GHSERMO;	6.000000e+03 N !

LIST_OF_REFERENCES
NUMBER  SOURCE
REF10	'A. FERNANDEZ GUILLERMET, CALPHAD VOL 6 (1982), P 127-140 
          (SIGMA PHASE REVISED 1986), TRITA-MAC 200 (1982); FE-MO'
REF58	'B. SUNDMAN, TEST'
REF90	'I ANSARA, UNPUBLISHED WORK (1991); CR-SI'
REF107	'J-O ANDERSSON, B. SUNDMAN, CALPHAD VOL 11, (1987), P 83-92 
          TRITA 0270 (1986); CR-FE'
REF113	'J-O ANDERSSON, CALPHAD VOL 12 (1988), P 9-23 
          TRITA 0321 (1986); C-FE-MO'
REF115	'J-O ANDERSSON, MET TRANS A, VOL 19A, (1988) P 1385-1394 
          TRITA 0322 (1986); CR-FE-MO'
REF117	'J-O ANDERSSON, TRITA-MAC 323 (1986); C-CR-FE-MO'
REF123	'K. FRISK, REPORT D 60, KTH, (1984); CR-MO'
REF126	'K. FRISK, METALL. TRANS. VOL 21A (1990) P 2477-2488, 
          TRITA 0409 (1989); CR-FE-N'
REF132	'K. FRISK, TRITA-MAC 428 (1990); FE-MO-NI'
REF133	'K. FRISK, TRITA-MAC 429 (1990); CR-MO-NI'
REF213	'P. GUSTAFSON, TRITA-MAC 342, (1987); CR-FE-W'
REF214	'P. GUSTAFSON, TRITA-MAC 354 (1987); C-CR-FE-MO-W'
REF281	'ALAN DINSDALE, SGTE DATA FOR PURE ELEMENTS, NPL REPORT DMA(A)195 
          SEPTEMBER 1989'
REF283	'ALAN DINSDALE, SGTE DATA FOR PURE ELEMENTS, 
          CALPHAD VOL 15(1991) P 317-425, 
          ALSO IN NPL REPORT DMA(A)195 REV. AUGUST 1990'
REF319	'H. DU AND M. HILLERT, REVISION; C-FE-N'
 ! 